\* transportationProblem *\
Minimize
OBJ: 8 x00 + 12 x01 + 10 x02 + 10 x03 + 6 x04 + 9999 x05 + 11 x10 + 9 x11
 + 8 x12 + 6 x13 + 9999 x14 + 7 x15 + 15 x20 + 10 x21 + 9 x22 + 5 x23 + 4 x24
 + 8 x25 + 4 x30 + 5 x31 + 6 x32 + 7 x33 + 8 x34 + 10 x35
Subject To
_C1: 60 x35 <= 5000
_C10: x05 + x15 + x25 + x35 >= 4000
_C2: 60 x35 <= 8000
_C3: 60 x35 <= 6500
_C4: 60 x35 <= 9500
_C5: x00 + x10 + x20 + x30 >= 3000
_C6: x01 + x11 + x21 + x31 >= 2500
_C7: x02 + x12 + x22 + x32 >= 4500
_C8: x03 + x13 + x23 + x33 >= 1500
_C9: x04 + x14 + x24 + x34 >= 6500
Bounds
0 <= x00
0 <= x01
0 <= x02
0 <= x03
0 <= x04
0 <= x05
0 <= x10
0 <= x11
0 <= x12
0 <= x13
0 <= x14
0 <= x15
0 <= x20
0 <= x21
0 <= x22
0 <= x23
0 <= x24
0 <= x25
0 <= x30
0 <= x31
0 <= x32
0 <= x33
0 <= x34
0 <= x35
Generals
x00
x01
x02
x03
x04
x05
x10
x11
x12
x13
x14
x15
x20
x21
x22
x23
x24
x25
x30
x31
x32
x33
x34
x35
End
